NAME           C:\Bruker\Hvattum\knapsack\Problems\class4\100-10-26.mps
ROWS
 N  OBJ
 L  CONSTR1
 L  CONSTR2
 L  CONSTR3
 L  CONSTR4
 L  CONSTR5
 L  CONSTR6
 L  CONSTR7
 L  CONSTR8
 L  CONSTR9
 L  CONSTR10
COLUMNS
    INT0001   'MARKER'  'INTORG'
    X1        OBJ       525
    X1        CONSTR1   133
    X1        CONSTR2   515
    X1        CONSTR3   848
    X1        CONSTR4   131
    X1        CONSTR5   96
    X1        CONSTR6   321
    X1        CONSTR7   25
    X1        CONSTR8   585
    X1        CONSTR9   648
    X1        CONSTR10  812
    X2        OBJ       686
    X2        CONSTR1   684
    X2        CONSTR2   760
    X2        CONSTR3   909
    X2        CONSTR4   72
    X2        CONSTR5   808
    X2        CONSTR6   298
    X2        CONSTR7   957
    X2        CONSTR8   924
    X2        CONSTR9   646
    X2        CONSTR10  510
    X3        OBJ       565
    X3        CONSTR1   242
    X3        CONSTR2   535
    X3        CONSTR3   12
    X3        CONSTR4   205
    X3        CONSTR5   827
    X3        CONSTR6   139
    X3        CONSTR7   470
    X3        CONSTR8   210
    X3        CONSTR9   860
    X3        CONSTR10  915
    X4        OBJ       456
    X4        CONSTR1   449
    X4        CONSTR2   34
    X4        CONSTR3   622
    X4        CONSTR4   258
    X4        CONSTR5   299
    X4        CONSTR6   995
    X4        CONSTR7   274
    X4        CONSTR8   332
    X4        CONSTR9   847
    X4        CONSTR10  170
    X5        OBJ       545
    X5        CONSTR1   865
    X5        CONSTR2   174
    X5        CONSTR3   506
    X5        CONSTR4   71
    X5        CONSTR5   216
    X5        CONSTR6   211
    X5        CONSTR7   367
    X5        CONSTR8   227
    X5        CONSTR9   825
    X5        CONSTR10  269
    X6        OBJ       952
    X6        CONSTR1   164
    X6        CONSTR2   892
    X6        CONSTR3   158
    X6        CONSTR4   935
    X6        CONSTR5   843
    X6        CONSTR6   310
    X6        CONSTR7   585
    X6        CONSTR8   330
    X6        CONSTR9   473
    X6        CONSTR10  363
    X7        OBJ       1000
    X7        CONSTR1   838
    X7        CONSTR2   546
    X7        CONSTR3   678
    X7        CONSTR4   457
    X7        CONSTR5   383
    X7        CONSTR6   200
    X7        CONSTR7   374
    X7        CONSTR8   981
    X7        CONSTR9   850
    X7        CONSTR10  880
    X8        OBJ       1023
    X8        CONSTR1   654
    X8        CONSTR2   669
    X8        CONSTR3   664
    X8        CONSTR4   737
    X8        CONSTR5   137
    X8        CONSTR6   964
    X8        CONSTR7   263
    X8        CONSTR8   692
    X8        CONSTR9   600
    X8        CONSTR10  186
    X9        OBJ       817
    X9        CONSTR1   213
    X9        CONSTR2   484
    X9        CONSTR3   790
    X9        CONSTR4   408
    X9        CONSTR5   745
    X9        CONSTR6   485
    X9        CONSTR7   792
    X9        CONSTR8   83
    X9        CONSTR9   609
    X9        CONSTR10  744
    X10       OBJ       987
    X10       CONSTR1   389
    X10       CONSTR2   989
    X10       CONSTR3   991
    X10       CONSTR4   572
    X10       CONSTR5   197
    X10       CONSTR6   229
    X10       CONSTR7   67
    X10       CONSTR8   761
    X10       CONSTR9   631
    X10       CONSTR10  781
    X11       OBJ       793
    X11       CONSTR1   272
    X11       CONSTR2   841
    X11       CONSTR3   782
    X11       CONSTR4   29
    X11       CONSTR5   462
    X11       CONSTR6   865
    X11       CONSTR7   649
    X11       CONSTR8   862
    X11       CONSTR9   588
    X11       CONSTR10  447
    X12       OBJ       905
    X12       CONSTR1   121
    X12       CONSTR2   169
    X12       CONSTR3   50
    X12       CONSTR4   496
    X12       CONSTR5   800
    X12       CONSTR6   538
    X12       CONSTR7   711
    X12       CONSTR8   4
    X12       CONSTR9   715
    X12       CONSTR10  605
    X13       OBJ       868
    X13       CONSTR1   403
    X13       CONSTR2   707
    X13       CONSTR3   506
    X13       CONSTR4   724
    X13       CONSTR5   858
    X13       CONSTR6   888
    X13       CONSTR7   627
    X13       CONSTR8   469
    X13       CONSTR9   106
    X13       CONSTR10  407
    X14       OBJ       1091
    X14       CONSTR1   983
    X14       CONSTR2   1000
    X14       CONSTR3   412
    X14       CONSTR4   748
    X14       CONSTR5   174
    X14       CONSTR6   665
    X14       CONSTR7   660
    X14       CONSTR8   862
    X14       CONSTR9   875
    X14       CONSTR10  565
    X15       OBJ       743
    X15       CONSTR1   424
    X15       CONSTR2   568
    X15       CONSTR3   68
    X15       CONSTR4   424
    X15       CONSTR5   748
    X15       CONSTR6   78
    X15       CONSTR7   200
    X15       CONSTR8   785
    X15       CONSTR9   316
    X15       CONSTR10  569
    X16       OBJ       587
    X16       CONSTR1   870
    X16       CONSTR2   333
    X16       CONSTR3   472
    X16       CONSTR4   859
    X16       CONSTR5   596
    X16       CONSTR6   385
    X16       CONSTR7   509
    X16       CONSTR8   304
    X16       CONSTR9   42
    X16       CONSTR10  391
    X17       OBJ       714
    X17       CONSTR1   431
    X17       CONSTR2   886
    X17       CONSTR3   163
    X17       CONSTR4   479
    X17       CONSTR5   50
    X17       CONSTR6   105
    X17       CONSTR7   178
    X17       CONSTR8   336
    X17       CONSTR9   830
    X17       CONSTR10  293
    X18       OBJ       692
    X18       CONSTR1   74
    X18       CONSTR2   997
    X18       CONSTR3   410
    X18       CONSTR4   909
    X18       CONSTR5   948
    X18       CONSTR6   859
    X18       CONSTR7   135
    X18       CONSTR8   660
    X18       CONSTR9   999
    X18       CONSTR10  809
    X19       OBJ       853
    X19       CONSTR1   81
    X19       CONSTR2   908
    X19       CONSTR3   54
    X19       CONSTR4   38
    X19       CONSTR5   982
    X19       CONSTR6   991
    X19       CONSTR7   966
    X19       CONSTR8   339
    X19       CONSTR9   70
    X19       CONSTR10  545
    X20       OBJ       869
    X20       CONSTR1   738
    X20       CONSTR2   674
    X20       CONSTR3   119
    X20       CONSTR4   389
    X20       CONSTR5   785
    X20       CONSTR6   683
    X20       CONSTR7   394
    X20       CONSTR8   611
    X20       CONSTR9   728
    X20       CONSTR10  329
    X21       OBJ       714
    X21       CONSTR1   299
    X21       CONSTR2   303
    X21       CONSTR3   644
    X21       CONSTR4   967
    X21       CONSTR5   932
    X21       CONSTR6   216
    X21       CONSTR7   314
    X21       CONSTR8   436
    X21       CONSTR9   284
    X21       CONSTR10  513
    X22       OBJ       515
    X22       CONSTR1   126
    X22       CONSTR2   111
    X22       CONSTR3   90
    X22       CONSTR4   524
    X22       CONSTR5   678
    X22       CONSTR6   244
    X22       CONSTR7   231
    X22       CONSTR8   354
    X22       CONSTR9   117
    X22       CONSTR10  268
    X23       OBJ       623
    X23       CONSTR1   69
    X23       CONSTR2   585
    X23       CONSTR3   559
    X23       CONSTR4   32
    X23       CONSTR5   779
    X23       CONSTR6   891
    X23       CONSTR7   750
    X23       CONSTR8   569
    X23       CONSTR9   382
    X23       CONSTR10  514
    X24       OBJ       661
    X24       CONSTR1   686
    X24       CONSTR2   148
    X24       CONSTR3   846
    X24       CONSTR4   344
    X24       CONSTR5   839
    X24       CONSTR6   625
    X24       CONSTR7   583
    X24       CONSTR8   348
    X24       CONSTR9   739
    X24       CONSTR10  147
    X25       OBJ       940
    X25       CONSTR1   72
    X25       CONSTR2   720
    X25       CONSTR3   87
    X25       CONSTR4   134
    X25       CONSTR5   286
    X25       CONSTR6   991
    X25       CONSTR7   992
    X25       CONSTR8   693
    X25       CONSTR9   707
    X25       CONSTR10  548
    X26       OBJ       1011
    X26       CONSTR1   634
    X26       CONSTR2   773
    X26       CONSTR3   321
    X26       CONSTR4   909
    X26       CONSTR5   604
    X26       CONSTR6   620
    X26       CONSTR7   270
    X26       CONSTR8   97
    X26       CONSTR9   198
    X26       CONSTR10  834
    X27       OBJ       1013
    X27       CONSTR1   744
    X27       CONSTR2   87
    X27       CONSTR3   236
    X27       CONSTR4   916
    X27       CONSTR5   352
    X27       CONSTR6   891
    X27       CONSTR7   755
    X27       CONSTR8   444
    X27       CONSTR9   115
    X27       CONSTR10  609
    X28       OBJ       638
    X28       CONSTR1   336
    X28       CONSTR2   870
    X28       CONSTR3   317
    X28       CONSTR4   32
    X28       CONSTR5   691
    X28       CONSTR6   671
    X28       CONSTR7   426
    X28       CONSTR8   823
    X28       CONSTR9   122
    X28       CONSTR10  856
    X29       OBJ       1003
    X29       CONSTR1   916
    X29       CONSTR2   473
    X29       CONSTR3   804
    X29       CONSTR4   781
    X29       CONSTR5   160
    X29       CONSTR6   795
    X29       CONSTR7   352
    X29       CONSTR8   554
    X29       CONSTR9   72
    X29       CONSTR10  483
    X30       OBJ       759
    X30       CONSTR1   486
    X30       CONSTR2   283
    X30       CONSTR3   208
    X30       CONSTR4   110
    X30       CONSTR5   722
    X30       CONSTR6   243
    X30       CONSTR7   533
    X30       CONSTR8   366
    X30       CONSTR9   564
    X30       CONSTR10  300
    X31       OBJ       886
    X31       CONSTR1   974
    X31       CONSTR2   563
    X31       CONSTR3   706
    X31       CONSTR4   101
    X31       CONSTR5   756
    X31       CONSTR6   506
    X31       CONSTR7   291
    X31       CONSTR8   513
    X31       CONSTR9   249
    X31       CONSTR10  137
    X32       OBJ       517
    X32       CONSTR1   574
    X32       CONSTR2   88
    X32       CONSTR3   294
    X32       CONSTR4   114
    X32       CONSTR5   98
    X32       CONSTR6   730
    X32       CONSTR7   340
    X32       CONSTR8   73
    X32       CONSTR9   197
    X32       CONSTR10  428
    X33       OBJ       841
    X33       CONSTR1   183
    X33       CONSTR2   577
    X33       CONSTR3   549
    X33       CONSTR4   685
    X33       CONSTR5   989
    X33       CONSTR6   92
    X33       CONSTR7   677
    X33       CONSTR8   708
    X33       CONSTR9   935
    X33       CONSTR10  995
    X34       OBJ       946
    X34       CONSTR1   906
    X34       CONSTR2   167
    X34       CONSTR3   980
    X34       CONSTR4   907
    X34       CONSTR5   713
    X34       CONSTR6   536
    X34       CONSTR7   622
    X34       CONSTR8   204
    X34       CONSTR9   591
    X34       CONSTR10  736
    X35       OBJ       1058
    X35       CONSTR1   475
    X35       CONSTR2   798
    X35       CONSTR3   226
    X35       CONSTR4   752
    X35       CONSTR5   736
    X35       CONSTR6   291
    X35       CONSTR7   786
    X35       CONSTR8   777
    X35       CONSTR9   722
    X35       CONSTR10  658
    X36       OBJ       795
    X36       CONSTR1   634
    X36       CONSTR2   331
    X36       CONSTR3   310
    X36       CONSTR4   600
    X36       CONSTR5   925
    X36       CONSTR6   258
    X36       CONSTR7   184
    X36       CONSTR8   928
    X36       CONSTR9   454
    X36       CONSTR10  95
    X37       OBJ       655
    X37       CONSTR1   691
    X37       CONSTR2   125
    X37       CONSTR3   197
    X37       CONSTR4   245
    X37       CONSTR5   354
    X37       CONSTR6   621
    X37       CONSTR7   511
    X37       CONSTR8   534
    X37       CONSTR9   139
    X37       CONSTR10  992
    X38       OBJ       1086
    X38       CONSTR1   778
    X38       CONSTR2   213
    X38       CONSTR3   173
    X38       CONSTR4   743
    X38       CONSTR5   460
    X38       CONSTR6   829
    X38       CONSTR7   962
    X38       CONSTR8   903
    X38       CONSTR9   258
    X38       CONSTR10  630
    X39       OBJ       661
    X39       CONSTR1   255
    X39       CONSTR2   240
    X39       CONSTR3   96
    X39       CONSTR4   852
    X39       CONSTR5   997
    X39       CONSTR6   280
    X39       CONSTR7   280
    X39       CONSTR8   574
    X39       CONSTR9   51
    X39       CONSTR10  601
    X40       OBJ       702
    X40       CONSTR1   892
    X40       CONSTR2   54
    X40       CONSTR3   586
    X40       CONSTR4   730
    X40       CONSTR5   754
    X40       CONSTR6   1000
    X40       CONSTR7   572
    X40       CONSTR8   574
    X40       CONSTR9   19
    X40       CONSTR10  14
    X41       OBJ       681
    X41       CONSTR1   966
    X41       CONSTR2   473
    X41       CONSTR3   620
    X41       CONSTR4   882
    X41       CONSTR5   153
    X41       CONSTR6   2
    X41       CONSTR7   264
    X41       CONSTR8   377
    X41       CONSTR9   590
    X41       CONSTR10  507
    X42       OBJ       707
    X42       CONSTR1   592
    X42       CONSTR2   690
    X42       CONSTR3   647
    X42       CONSTR4   287
    X42       CONSTR5   402
    X42       CONSTR6   214
    X42       CONSTR7   796
    X42       CONSTR8   984
    X42       CONSTR9   683
    X42       CONSTR10  674
    X43       OBJ       705
    X43       CONSTR1   222
    X43       CONSTR2   186
    X43       CONSTR3   62
    X43       CONSTR4   71
    X43       CONSTR5   370
    X43       CONSTR6   799
    X43       CONSTR7   579
    X43       CONSTR8   272
    X43       CONSTR9   606
    X43       CONSTR10  695
    X44       OBJ       1014
    X44       CONSTR1   411
    X44       CONSTR2   440
    X44       CONSTR3   225
    X44       CONSTR4   515
    X44       CONSTR5   888
    X44       CONSTR6   622
    X44       CONSTR7   557
    X44       CONSTR8   877
    X44       CONSTR9   528
    X44       CONSTR10  830
    X45       OBJ       823
    X45       CONSTR1   57
    X45       CONSTR2   162
    X45       CONSTR3   28
    X45       CONSTR4   194
    X45       CONSTR5   845
    X45       CONSTR6   796
    X45       CONSTR7   956
    X45       CONSTR8   229
    X45       CONSTR9   415
    X45       CONSTR10  711
    X46       OBJ       372
    X46       CONSTR1   24
    X46       CONSTR2   520
    X46       CONSTR3   402
    X46       CONSTR4   543
    X46       CONSTR5   200
    X46       CONSTR6   150
    X46       CONSTR7   122
    X46       CONSTR8   804
    X46       CONSTR9   93
    X46       CONSTR10  732
    X47       OBJ       1004
    X47       CONSTR1   72
    X47       CONSTR2   767
    X47       CONSTR3   291
    X47       CONSTR4   160
    X47       CONSTR5   948
    X47       CONSTR6   818
    X47       CONSTR7   819
    X47       CONSTR8   154
    X47       CONSTR9   826
    X47       CONSTR10  545
    X48       OBJ       563
    X48       CONSTR1   56
    X48       CONSTR2   388
    X48       CONSTR3   438
    X48       CONSTR4   881
    X48       CONSTR5   89
    X48       CONSTR6   993
    X48       CONSTR7   292
    X48       CONSTR8   167
    X48       CONSTR9   167
    X48       CONSTR10  535
    X49       OBJ       913
    X49       CONSTR1   70
    X49       CONSTR2   143
    X49       CONSTR3   656
    X49       CONSTR4   775
    X49       CONSTR5   259
    X49       CONSTR6   734
    X49       CONSTR7   292
    X49       CONSTR8   991
    X49       CONSTR9   959
    X49       CONSTR10  91
    X50       OBJ       420
    X50       CONSTR1   9
    X50       CONSTR2   126
    X50       CONSTR3   234
    X50       CONSTR4   400
    X50       CONSTR5   92
    X50       CONSTR6   48
    X50       CONSTR7   375
    X50       CONSTR8   635
    X50       CONSTR9   406
    X50       CONSTR10  937
    X51       OBJ       582
    X51       CONSTR1   933
    X51       CONSTR2   616
    X51       CONSTR3   19
    X51       CONSTR4   993
    X51       CONSTR5   172
    X51       CONSTR6   138
    X51       CONSTR7   143
    X51       CONSTR8   1000
    X51       CONSTR9   764
    X51       CONSTR10  562
    X52       OBJ       1013
    X52       CONSTR1   248
    X52       CONSTR2   626
    X52       CONSTR3   530
    X52       CONSTR4   882
    X52       CONSTR5   837
    X52       CONSTR6   864
    X52       CONSTR7   786
    X52       CONSTR8   60
    X52       CONSTR9   128
    X52       CONSTR10  266
    X53       OBJ       913
    X53       CONSTR1   956
    X53       CONSTR2   603
    X53       CONSTR3   297
    X53       CONSTR4   932
    X53       CONSTR5   636
    X53       CONSTR6   388
    X53       CONSTR7   322
    X53       CONSTR8   845
    X53       CONSTR9   145
    X53       CONSTR10  652
    X54       OBJ       767
    X54       CONSTR1   177
    X54       CONSTR2   780
    X54       CONSTR3   622
    X54       CONSTR4   72
    X54       CONSTR5   74
    X54       CONSTR6   798
    X54       CONSTR7   314
    X54       CONSTR8   561
    X54       CONSTR9   55
    X54       CONSTR10  7
    X55       OBJ       639
    X55       CONSTR1   350
    X55       CONSTR2   345
    X55       CONSTR3   613
    X55       CONSTR4   16
    X55       CONSTR5   255
    X55       CONSTR6   500
    X55       CONSTR7   234
    X55       CONSTR8   997
    X55       CONSTR9   627
    X55       CONSTR10  554
    X56       OBJ       937
    X56       CONSTR1   928
    X56       CONSTR2   52
    X56       CONSTR3   195
    X56       CONSTR4   167
    X56       CONSTR5   402
    X56       CONSTR6   137
    X56       CONSTR7   972
    X56       CONSTR8   434
    X56       CONSTR9   958
    X56       CONSTR10  427
    X57       OBJ       726
    X57       CONSTR1   322
    X57       CONSTR2   523
    X57       CONSTR3   624
    X57       CONSTR4   665
    X57       CONSTR5   581
    X57       CONSTR6   640
    X57       CONSTR7   569
    X57       CONSTR8   482
    X57       CONSTR9   589
    X57       CONSTR10  146
    X58       OBJ       678
    X58       CONSTR1   734
    X58       CONSTR2   682
    X58       CONSTR3   89
    X58       CONSTR4   144
    X58       CONSTR5   255
    X58       CONSTR6   620
    X58       CONSTR7   676
    X58       CONSTR8   406
    X58       CONSTR9   383
    X58       CONSTR10  939
    X59       OBJ       460
    X59       CONSTR1   268
    X59       CONSTR2   64
    X59       CONSTR3   990
    X59       CONSTR4   145
    X59       CONSTR5   953
    X59       CONSTR6   190
    X59       CONSTR7   332
    X59       CONSTR8   54
    X59       CONSTR9   351
    X59       CONSTR10  44
    X60       OBJ       814
    X60       CONSTR1   718
    X60       CONSTR2   964
    X60       CONSTR3   119
    X60       CONSTR4   225
    X60       CONSTR5   797
    X60       CONSTR6   720
    X60       CONSTR7   743
    X60       CONSTR8   252
    X60       CONSTR9   974
    X60       CONSTR10  388
    X61       OBJ       676
    X61       CONSTR1   637
    X61       CONSTR2   991
    X61       CONSTR3   355
    X61       CONSTR4   86
    X61       CONSTR5   411
    X61       CONSTR6   717
    X61       CONSTR7   604
    X61       CONSTR8   522
    X61       CONSTR9   843
    X61       CONSTR10  47
    X62       OBJ       840
    X62       CONSTR1   955
    X62       CONSTR2   622
    X62       CONSTR3   370
    X62       CONSTR4   19
    X62       CONSTR5   671
    X62       CONSTR6   785
    X62       CONSTR7   692
    X62       CONSTR8   357
    X62       CONSTR9   134
    X62       CONSTR10  187
    X63       OBJ       721
    X63       CONSTR1   786
    X63       CONSTR2   463
    X63       CONSTR3   593
    X63       CONSTR4   422
    X63       CONSTR5   646
    X63       CONSTR6   818
    X63       CONSTR7   186
    X63       CONSTR8   728
    X63       CONSTR9   912
    X63       CONSTR10  402
    X64       OBJ       914
    X64       CONSTR1   28
    X64       CONSTR2   190
    X64       CONSTR3   326
    X64       CONSTR4   934
    X64       CONSTR5   719
    X64       CONSTR6   7
    X64       CONSTR7   403
    X64       CONSTR8   339
    X64       CONSTR9   897
    X64       CONSTR10  783
    X65       OBJ       491
    X65       CONSTR1   217
    X65       CONSTR2   851
    X65       CONSTR3   880
    X65       CONSTR4   241
    X65       CONSTR5   327
    X65       CONSTR6   88
    X65       CONSTR7   131
    X65       CONSTR8   620
    X65       CONSTR9   839
    X65       CONSTR10  182
    X66       OBJ       760
    X66       CONSTR1   241
    X66       CONSTR2   31
    X66       CONSTR3   843
    X66       CONSTR4   988
    X66       CONSTR5   934
    X66       CONSTR6   250
    X66       CONSTR7   547
    X66       CONSTR8   967
    X66       CONSTR9   794
    X66       CONSTR10  331
    X67       OBJ       878
    X67       CONSTR1   601
    X67       CONSTR2   565
    X67       CONSTR3   859
    X67       CONSTR4   257
    X67       CONSTR5   534
    X67       CONSTR6   943
    X67       CONSTR7   166
    X67       CONSTR8   858
    X67       CONSTR9   285
    X67       CONSTR10  234
    X68       OBJ       960
    X68       CONSTR1   771
    X68       CONSTR2   745
    X68       CONSTR3   843
    X68       CONSTR4   738
    X68       CONSTR5   233
    X68       CONSTR6   876
    X68       CONSTR7   351
    X68       CONSTR8   37
    X68       CONSTR9   508
    X68       CONSTR10  545
    X69       OBJ       879
    X69       CONSTR1   601
    X69       CONSTR2   323
    X69       CONSTR3   507
    X69       CONSTR4   896
    X69       CONSTR5   886
    X69       CONSTR6   89
    X69       CONSTR7   205
    X69       CONSTR8   979
    X69       CONSTR9   458
    X69       CONSTR10  338
    X70       OBJ       862
    X70       CONSTR1   345
    X70       CONSTR2   797
    X70       CONSTR3   27
    X70       CONSTR4   493
    X70       CONSTR5   585
    X70       CONSTR6   191
    X70       CONSTR7   334
    X70       CONSTR8   318
    X70       CONSTR9   748
    X70       CONSTR10  400
    X71       OBJ       725
    X71       CONSTR1   375
    X71       CONSTR2   481
    X71       CONSTR3   96
    X71       CONSTR4   823
    X71       CONSTR5   894
    X71       CONSTR6   944
    X71       CONSTR7   756
    X71       CONSTR8   330
    X71       CONSTR9   987
    X71       CONSTR10  565
    X72       OBJ       1020
    X72       CONSTR1   424
    X72       CONSTR2   644
    X72       CONSTR3   912
    X72       CONSTR4   21
    X72       CONSTR5   878
    X72       CONSTR6   436
    X72       CONSTR7   592
    X72       CONSTR8   919
    X72       CONSTR9   788
    X72       CONSTR10  279
    X73       OBJ       714
    X73       CONSTR1   767
    X73       CONSTR2   192
    X73       CONSTR3   839
    X73       CONSTR4   181
    X73       CONSTR5   988
    X73       CONSTR6   861
    X73       CONSTR7   41
    X73       CONSTR8   867
    X73       CONSTR9   202
    X73       CONSTR10  569
    X74       OBJ       588
    X74       CONSTR1   738
    X74       CONSTR2   412
    X74       CONSTR3   76
    X74       CONSTR4   135
    X74       CONSTR5   242
    X74       CONSTR6   299
    X74       CONSTR7   694
    X74       CONSTR8   305
    X74       CONSTR9   375
    X74       CONSTR10  494
    X75       OBJ       554
    X75       CONSTR1   534
    X75       CONSTR2   41
    X75       CONSTR3   760
    X75       CONSTR4   253
    X75       CONSTR5   70
    X75       CONSTR6   430
    X75       CONSTR7   522
    X75       CONSTR8   89
    X75       CONSTR9   234
    X75       CONSTR10  276
    X76       OBJ       840
    X76       CONSTR1   353
    X76       CONSTR2   426
    X76       CONSTR3   636
    X76       CONSTR4   825
    X76       CONSTR5   610
    X76       CONSTR6   555
    X76       CONSTR7   897
    X76       CONSTR8   91
    X76       CONSTR9   723
    X76       CONSTR10  242
    X77       OBJ       962
    X77       CONSTR1   586
    X77       CONSTR2   797
    X77       CONSTR3   302
    X77       CONSTR4   876
    X77       CONSTR5   998
    X77       CONSTR6   289
    X77       CONSTR7   474
    X77       CONSTR8   971
    X77       CONSTR9   990
    X77       CONSTR10  869
    X78       OBJ       562
    X78       CONSTR1   399
    X78       CONSTR2   621
    X78       CONSTR3   741
    X78       CONSTR4   740
    X78       CONSTR5   325
    X78       CONSTR6   340
    X78       CONSTR7   201
    X78       CONSTR8   266
    X78       CONSTR9   622
    X78       CONSTR10  617
    X79       OBJ       742
    X79       CONSTR1   462
    X79       CONSTR2   446
    X79       CONSTR3   118
    X79       CONSTR4   584
    X79       CONSTR5   278
    X79       CONSTR6   643
    X79       CONSTR7   125
    X79       CONSTR8   654
    X79       CONSTR9   302
    X79       CONSTR10  177
    X80       OBJ       884
    X80       CONSTR1   903
    X80       CONSTR2   861
    X80       CONSTR3   878
    X80       CONSTR4   480
    X80       CONSTR5   429
    X80       CONSTR6   681
    X80       CONSTR7   577
    X80       CONSTR8   906
    X80       CONSTR9   840
    X80       CONSTR10  66
    X81       OBJ       427
    X81       CONSTR1   98
    X81       CONSTR2   344
    X81       CONSTR3   488
    X81       CONSTR4   22
    X81       CONSTR5   212
    X81       CONSTR6   806
    X81       CONSTR7   157
    X81       CONSTR8   143
    X81       CONSTR9   820
    X81       CONSTR10  217
    X82       OBJ       699
    X82       CONSTR1   614
    X82       CONSTR2   179
    X82       CONSTR3   741
    X82       CONSTR4   278
    X82       CONSTR5   222
    X82       CONSTR6   734
    X82       CONSTR7   991
    X82       CONSTR8   128
    X82       CONSTR9   770
    X82       CONSTR10  621
    X83       OBJ       974
    X83       CONSTR1   250
    X83       CONSTR2   928
    X83       CONSTR3   22
    X83       CONSTR4   886
    X83       CONSTR5   975
    X83       CONSTR6   789
    X83       CONSTR7   195
    X83       CONSTR8   99
    X83       CONSTR9   650
    X83       CONSTR10  6
    X84       OBJ       846
    X84       CONSTR1   913
    X84       CONSTR2   940
    X84       CONSTR3   550
    X84       CONSTR4   159
    X84       CONSTR5   103
    X84       CONSTR6   107
    X84       CONSTR7   335
    X84       CONSTR8   281
    X84       CONSTR9   914
    X84       CONSTR10  980
    X85       OBJ       705
    X85       CONSTR1   13
    X85       CONSTR2   17
    X85       CONSTR3   485
    X85       CONSTR4   218
    X85       CONSTR5   537
    X85       CONSTR6   728
    X85       CONSTR7   92
    X85       CONSTR8   819
    X85       CONSTR9   151
    X85       CONSTR10  379
    X86       OBJ       492
    X86       CONSTR1   89
    X86       CONSTR2   85
    X86       CONSTR3   492
    X86       CONSTR4   93
    X86       CONSTR5   670
    X86       CONSTR6   791
    X86       CONSTR7   20
    X86       CONSTR8   941
    X86       CONSTR9   326
    X86       CONSTR10  686
    X87       OBJ       538
    X87       CONSTR1   307
    X87       CONSTR2   185
    X87       CONSTR3   412
    X87       CONSTR4   61
    X87       CONSTR5   195
    X87       CONSTR6   951
    X87       CONSTR7   467
    X87       CONSTR8   841
    X87       CONSTR9   540
    X87       CONSTR10  904
    X88       OBJ       993
    X88       CONSTR1   820
    X88       CONSTR2   613
    X88       CONSTR3   200
    X88       CONSTR4   356
    X88       CONSTR5   988
    X88       CONSTR6   871
    X88       CONSTR7   598
    X88       CONSTR8   692
    X88       CONSTR9   123
    X88       CONSTR10  179
    X89       OBJ       546
    X89       CONSTR1   111
    X89       CONSTR2   172
    X89       CONSTR3   403
    X89       CONSTR4   641
    X89       CONSTR5   803
    X89       CONSTR6   276
    X89       CONSTR7   120
    X89       CONSTR8   191
    X89       CONSTR9   225
    X89       CONSTR10  597
    X90       OBJ       684
    X90       CONSTR1   932
    X90       CONSTR2   401
    X90       CONSTR3   26
    X90       CONSTR4   643
    X90       CONSTR5   922
    X90       CONSTR6   170
    X90       CONSTR7   448
    X90       CONSTR8   415
    X90       CONSTR9   428
    X90       CONSTR10  631
    X91       OBJ       850
    X91       CONSTR1   367
    X91       CONSTR2   970
    X91       CONSTR3   709
    X91       CONSTR4   30
    X91       CONSTR5   516
    X91       CONSTR6   855
    X91       CONSTR7   6
    X91       CONSTR8   412
    X91       CONSTR9   945
    X91       CONSTR10  809
    X92       OBJ       860
    X92       CONSTR1   892
    X92       CONSTR2   449
    X92       CONSTR3   224
    X92       CONSTR4   569
    X92       CONSTR5   972
    X92       CONSTR6   566
    X92       CONSTR7   336
    X92       CONSTR8   963
    X92       CONSTR9   164
    X92       CONSTR10  480
    X93       OBJ       961
    X93       CONSTR1   779
    X93       CONSTR2   87
    X93       CONSTR3   862
    X93       CONSTR4   495
    X93       CONSTR5   672
    X93       CONSTR6   436
    X93       CONSTR7   584
    X93       CONSTR8   757
    X93       CONSTR9   172
    X93       CONSTR10  572
    X94       OBJ       693
    X94       CONSTR1   139
    X94       CONSTR2   339
    X94       CONSTR3   219
    X94       CONSTR4   960
    X94       CONSTR5   922
    X94       CONSTR6   629
    X94       CONSTR7   744
    X94       CONSTR8   800
    X94       CONSTR9   731
    X94       CONSTR10  268
    X95       OBJ       758
    X95       CONSTR1   479
    X95       CONSTR2   687
    X95       CONSTR3   703
    X95       CONSTR4   513
    X95       CONSTR5   822
    X95       CONSTR6   594
    X95       CONSTR7   445
    X95       CONSTR8   270
    X95       CONSTR9   559
    X95       CONSTR10  320
    X96       OBJ       773
    X96       CONSTR1   313
    X96       CONSTR2   850
    X96       CONSTR3   340
    X96       CONSTR4   222
    X96       CONSTR5   633
    X96       CONSTR6   911
    X96       CONSTR7   484
    X96       CONSTR8   590
    X96       CONSTR9   476
    X96       CONSTR10  865
    X97       OBJ       677
    X97       CONSTR1   277
    X97       CONSTR2   858
    X97       CONSTR3   603
    X97       CONSTR4   328
    X97       CONSTR5   630
    X97       CONSTR6   420
    X97       CONSTR7   13
    X97       CONSTR8   523
    X97       CONSTR9   897
    X97       CONSTR10  309
    X98       OBJ       932
    X98       CONSTR1   673
    X98       CONSTR2   368
    X98       CONSTR3   497
    X98       CONSTR4   252
    X98       CONSTR5   602
    X98       CONSTR6   641
    X98       CONSTR7   563
    X98       CONSTR8   556
    X98       CONSTR9   526
    X98       CONSTR10  54
    X99       OBJ       577
    X99       CONSTR1   100
    X99       CONSTR2   892
    X99       CONSTR3   63
    X99       CONSTR4   576
    X99       CONSTR5   620
    X99       CONSTR6   415
    X99       CONSTR7   64
    X99       CONSTR8   885
    X99       CONSTR9   869
    X99       CONSTR10  457
    X100      OBJ       964
    X100      CONSTR1   970
    X100      CONSTR2   837
    X100      CONSTR3   260
    X100      CONSTR4   64
    X100      CONSTR5   304
    X100      CONSTR6   183
    X100      CONSTR7   703
    X100      CONSTR8   745
    X100      CONSTR9   593
    X100      CONSTR10  98
    INT0001   'MARKER'  'INTEND'
RHS
    RHS10001  CONSTR1   35798
    RHS10001  CONSTR2   37530
    RHS10001  CONSTR3   33303
    RHS10001  CONSTR4   34295
    RHS10001  CONSTR5   42724
    RHS10001  CONSTR6   40369
    RHS10001  CONSTR7   34230
    RHS10001  CONSTR8   40188
    RHS10001  CONSTR9   39585
    RHS10001  CONSTR10  36169
BOUNDS
 BV BND       X1        .00
 BV BND       X2        .00
 BV BND       X3        .00
 BV BND       X4        .00
 BV BND       X5        .00
 BV BND       X6        .00
 BV BND       X7        .00
 BV BND       X8        .00
 BV BND       X9        .00
 BV BND       X10       .00
 BV BND       X11       .00
 BV BND       X12       .00
 BV BND       X13       .00
 BV BND       X14       .00
 BV BND       X15       .00
 BV BND       X16       .00
 BV BND       X17       .00
 BV BND       X18       .00
 BV BND       X19       .00
 BV BND       X20       .00
 BV BND       X21       .00
 BV BND       X22       .00
 BV BND       X23       .00
 BV BND       X24       .00
 BV BND       X25       .00
 BV BND       X26       .00
 BV BND       X27       .00
 BV BND       X28       .00
 BV BND       X29       .00
 BV BND       X30       .00
 BV BND       X31       .00
 BV BND       X32       .00
 BV BND       X33       .00
 BV BND       X34       .00
 BV BND       X35       .00
 BV BND       X36       .00
 BV BND       X37       .00
 BV BND       X38       .00
 BV BND       X39       .00
 BV BND       X40       .00
 BV BND       X41       .00
 BV BND       X42       .00
 BV BND       X43       .00
 BV BND       X44       .00
 BV BND       X45       .00
 BV BND       X46       .00
 BV BND       X47       .00
 BV BND       X48       .00
 BV BND       X49       .00
 BV BND       X50       .00
 BV BND       X51       .00
 BV BND       X52       .00
 BV BND       X53       .00
 BV BND       X54       .00
 BV BND       X55       .00
 BV BND       X56       .00
 BV BND       X57       .00
 BV BND       X58       .00
 BV BND       X59       .00
 BV BND       X60       .00
 BV BND       X61       .00
 BV BND       X62       .00
 BV BND       X63       .00
 BV BND       X64       .00
 BV BND       X65       .00
 BV BND       X66       .00
 BV BND       X67       .00
 BV BND       X68       .00
 BV BND       X69       .00
 BV BND       X70       .00
 BV BND       X71       .00
 BV BND       X72       .00
 BV BND       X73       .00
 BV BND       X74       .00
 BV BND       X75       .00
 BV BND       X76       .00
 BV BND       X77       .00
 BV BND       X78       .00
 BV BND       X79       .00
 BV BND       X80       .00
 BV BND       X81       .00
 BV BND       X82       .00
 BV BND       X83       .00
 BV BND       X84       .00
 BV BND       X85       .00
 BV BND       X86       .00
 BV BND       X87       .00
 BV BND       X88       .00
 BV BND       X89       .00
 BV BND       X90       .00
 BV BND       X91       .00
 BV BND       X92       .00
 BV BND       X93       .00
 BV BND       X94       .00
 BV BND       X95       .00
 BV BND       X96       .00
 BV BND       X97       .00
 BV BND       X98       .00
 BV BND       X99       .00
 BV BND       X100      .00
ENDATA
